NAME: UKansasState
COMMENT: 10 locations in UKansasState
DIMENSION: 10
EDGE_WEIGHT_TYPE: EUC_2D
NODE_COORD_SECTION
1 39199782.000000 -96588706.000000
2 39200606.000000 -96588317.000000
3 39186163.000000 -96577350.000000
4 39199677.000000 -96594881.000000
5 39198047.000000 -96586469.000000
6 39202009.000000 -96594971.000000
7 39187163.000000 -96585232.000000
8 39186277.000000 -96579539.000000
9 39180824.000000 -96574526.000000
10 39188285.000000 -96578214.000000
EOF
